c ---- [ banner ] ------------------------------------------------------------
c
c Kissat SAT Solver
c 
c Copyright (c) 2021-2023 Armin Biere University of Freiburg
c Copyright (c) 2019-2021 Armin Biere Johannes Kepler University Linz
c 
c Version 3.1.1 unknown
c gcc (Ubuntu 9.4.0-1ubuntu1~20.04.2) 9.4.0 -W -Wall -O3 -DNDEBUG
c Mon Feb 26 18:18:52 CET 2024 Linux OptiPlex-7080 5.15.0-88-generic x86_64
c
c ---- [ parsing ] -----------------------------------------------------------
c
c opened and reading DIMACS file:
c
c   tseitin-31.cnf
c
c parsed 'p cnf 62 248' header
c closing input after reading 4101 bytes (4 KB)
c finished parsing after 0.00 seconds
c
c ---- [ solving ] -----------------------------------------------------------
c
c  seconds switched conflicts irredundant variables
c         MB reductions redundant   trail  remaining
c          level restarts   binary     glue
c
c *  0.00  4 0 0 0  0   0   0   0 248 0% 0 62 98%
c {  0.00  4 0 0 0  0   0   0   0 248 0% 0 62 98%
c -  0.00  4 27 0 1  1 1002 200   0 248 85% 10 62 98%
c }  0.00  4 27 1 1  1 1002 200   0 248 85% 10 62 98%
c [  0.00  4 0 1 1  1 1002 200   0 248 0% 0 62 98%
c B  0.00  4 0 1 1  1 1002 200   0 248 0% 0 62 98%
c v  0.00  4 27 1 1  1 1166 304   0 248 91% 13 62 98%
c ]  0.01  4 23 2 1  1 1856 658   0 248 72% 9 62 98%
c {  0.01  4 27 2 1  1 1856 658   0 248 85% 10 62 98%
c -  0.01  4 26 2 2  1 2005 426   0 248 82% 10 62 98%
c v  0.01  4 24 2 2  1 2376 608   0 248 75% 10 62 98%
c }  0.01  4 24 3 2  5 2857 847   0 248 74% 10 62 98%
c [  0.01  4 23 3 2  5 2857 847   0 248 72% 9 62 98%
c W  0.01  4 23 3 2  5 2857 847   0 248 72% 9 62 98%
c ^  0.01  4 23 3 2  5 2907 872   0 248 71% 9 62 98%
c -  0.01  4 23 3 3  5 3419 578   0 248 68% 9 62 98%
c ]  0.01  4 22 4 3  5 3966 841   0 248 64% 9 62 98%
c {  0.01  4 24 4 3  5 3966 841   0 248 74% 10 62 98%
c -  0.01  4 22 4 4  5 5153 736   0 248 64% 10 62 98%
c ^  0.02  4 21 4 4  5 5815 1027   0 248 61% 9 62 98%
c
c  seconds  switched conflicts   irredundant variables
c         MB reductions  redundant      trail  remaining
c          level restarts      binary      glue
c
c }  0.02  4 21 5 4 18 6320 1287   0 248 61% 9 62 98%
c [  0.02  4 22 5 4 18 6320 1287   0 248 64% 9 62 98%
c I  0.02  4 22 5 4 18 6320 1287   0 248 64% 9 62 98%
c v  0.02  4 22 5 4 18 6846 1538   0 248 62% 9 62 98%
c -  0.02  4 21 5 5 18 7154 931   0 248 60% 9 62 98%
c ]  0.02  4 20 6 5 19 8357 1581   0 248 56% 9 62 98%
c {  0.02  4 21 6 5 19 8357 1581   0 248 61% 9 62 98%
c -  0.02  4 21 6 6 19 9392 1282   0 248 60% 9 62 98%
c v  0.03  4 20 6 6 19 10179 1647   0 248 59% 9 62 98%
c -  0.04  4 20 6 7 521 11843 1423   0 248 57% 10 62 98%
c ^  0.04  4 20 6 7 606 12121 1579   0 248 57% 10 62 98%
c }  0.04  4 20 7 7 700 12427 1760   0 248 56% 10 62 98%
c [  0.04  4 20 7 7 700 12427 1760   0 248 56% 9 62 98%
c B  0.04  4 20 7 7 700 12427 1760   0 248 56% 9 62 98%
c v  0.05  4 19 7 7 700 14280 2694   0 248 52% 9 62 98%
c -  0.05  4 19 7 8 701 14490 1623   0 248 52% 9 62 98%
c -  0.05  4 17 7 9 702 17319 1498   0 248 48% 9 62 98%
c W  0.06  4 17 7 9 702 17957 1851   0 248 47% 9 62 98%
c v  0.06  4 17 7 9 702 19180 2581   0 248 46% 9 62 98%
c -  0.06  4 17 7 10 703 20321 1591   0 248 46% 10 62 98%
c
c  seconds  switched   conflicts    irredundant variables
c         MB  reductions    redundant      trail   remaining
c          level  restarts        binary       glue
c
c ^  0.07  4 17 7 10 704 22276 2749   0 248 45% 10 62 98%
c ]  0.07  4 16 8 10 704 22676 3019   0 248 45% 10 62 98%
c {  0.07  4 20 8 10 704 22676 3019   0 248 56% 10 62 98%
c -  0.07  4 20 8 11 892 23485 1705   0 248 56% 11 62 98%
c v  0.08  4 20 8 11 892 24904 2446   0 248 55% 10 62 98%
c -  0.08  4 20 8 12 1043 26802 1842   0 248 54% 10 62 98%
c }  0.09  4 19 9 12 1043 28836 2849   0 248 53% 10 62 98%
c [  0.09  4 16 9 12 1043 28836 2849   0 248 45% 10 62 98%
c O  0.09  4 16 9 12 1043 28836 2849   0 248 45% 10 62 98%
c -  0.09  4 16 9 13 1043 30269 2043   0 248 44% 10 62 98%
c v  0.10  4 16 9 13 1044 31470 2766   0 248 44% 10 62 98%
c ]  0.10  4 16 10 13 1045 33388 3984   0 248 44% 10 62 98%
c {  0.10  4 19 10 13 1045 33388 3984   0 248 53% 10 62 98%
c -  0.10  5 19 10 14 1148 33874 2132   0 248 52% 10 62 98%
c ^  0.11  5 19 10 14 1246 36705 3470   0 248 51% 10 62 98%
c -  0.11  5 19 10 15 1317 37617 2197   0 248 51% 10 62 98%
c v  0.12  5 19 10 15 1317 38906 2754   0 248 51% 10 62 98%
c -  0.13  5 19 10 16 2040 41489 2344   0 248 50% 10 62 98%
c }  0.13  5 19 11 16 2181 42015 2578   0 248 50% 10 62 98%
c [  0.13  5 16 11 16 2181 42015 2578   0 248 44% 10 62 98%
c
c  seconds   switched    conflicts    irredundant variables
c         MB   reductions     redundant      trail   remaining
c          level    restarts        binary       glue
c
c B  0.13  5 16 11 16 2181 42015 2578   0 248 44% 10 62 98%
c -  0.14  5 16 11 17 2183 45489 2516   0 248 43% 10 62 98%
c v  0.15  5 16 11 17 2183 47228 3388   0 248 43% 10 62 98%
c -  0.15  5 16 11 18 2184 49612 2320   0 248 42% 10 62 98%
c ]  0.16  5 15 12 18 2185 51733 3676   0 248 42% 10 62 98%
c {  0.16  5 19 12 18 2185 51733 3676   0 248 50% 10 62 98%
c -  0.17  5 18 12 19 2762 53856 2565   0 248 48% 10 62 98%
c e  0.17  5 18 12 19 3309 55805 3562   0 472 48% 11 48 76%
c !  0.17  5 18 12 19 3309 55805 3562   0 472 48% 11 48 76%
c u  0.18  5 18 12 19 3385 56453 2602   0 472 48% 11 48 76%
c v  0.18  5 18 12 19 3385 56453 2602   0 472 48% 11 48 76%
c -  0.19  5 19 12 20 3837 58218 1962   0 472 48% 11 48 76%
c -  0.20  5 18 12 21 3837 62690 2365   0 472 50% 10 48 76%
c }  0.20  5 18 13 21 3837 63214 2661   0 472 50% 10 48 76%
c [  0.20  5 15 13 21 3837 63214 2661   0 472 42% 10 48 76%
c W  0.20  5 15 13 21 3837 63214 2661   0 472 42% 10 48 76%
c -  0.21  5 15 13 22 3839 67272 2673   0 472 42% 10 48 76%
c v  0.22  5 15 13 22 3839 69014 3832   0 472 43% 10 48 76%
c -  0.24  5 15 13 23 3841 71965 2826   0 472 43% 10 48 76%
c ]  0.24  5 15 14 23 3842 73722 4173   0 472 43% 10 48 76%
c
c  seconds   switched    conflicts    irredundant variables
c         MB   reductions     redundant      trail   remaining
c          level    restarts        binary       glue
c
c {  0.24  5 18 14 23 3842 73722 4173   0 472 50% 10 48 76%
c -  0.25  5 18 14 24 3842 76760 3045   0 472 50% 10 48 76%
c -  0.27  5 17 14 25 4366 81659 3283   0 472 50% 10 48 76%
c v  0.28  5 17 14 25 4366 82736 4031   0 472 50% 10 48 76%
c -  0.30  5 16 14 26 4520 86660 3754   0 472 49% 10 48 76%
c }  0.30  5 16 15 26 4520 88437 5353   0 472 49% 10 48 76%
c [  0.30  5 15 15 26 4520 88437 5353   0 472 43% 10 48 76%
c I  0.30  5 15 15 26 4520 88437 5353   0 472 43% 10 48 76%
c -  0.31  5 15 15 27 4522 91760 4037   0 472 44% 10 48 76%
c -  0.33  5 14 15 28 4525 96956 4499   0 472 44% 10 48 76%
c u  0.34  5 14 15 28 4525 97637 5172   0 472 44% 10 48 76%
c v  0.34  5 14 15 28 4525 97637 5172   0 472 44% 10 48 76%
c ]  0.36  6 14 16 28 4526 100417 7835   0 472 44% 9 48 76%
c {  0.36  6 16 16 28 4526 100417 7835   0 472 49% 10 48 76%
c -  0.36  6 16 16 29 4526 102247 5218   0 472 49% 10 48 76%
c s  0.38  6 15 16 29 4526 106132 9096   1 464 49% 9 48 76%
c -  0.39  5 15 16 30 4594 107632 6341   1 464 49% 9 48 76%
c -  0.41  5 15 16 31 4617 113111 6251   1 464 49% 9 48 76%
c u  0.41  5 15 16 31 4617 113734 6839  32 464 49% 9 48 76%
c v  0.42  5 15 16 31 4617 113734 5725 1146 464 49% 9 48 76%
c
c  seconds   switched    conflicts     irredundant variables
c         MB   reductions      redundant      trail  remaining
c          level    restarts         binary      glue
c
c t  0.42  5 15 16 31 4617 113734 5725   1 464 49% 9 48 76%
c -  0.44  6 15 16 32 4672 118678 5397   1 464 50% 9 48 76%
c }  0.44  6 15 17 32 4672 118754 5440   1 464 50% 9 48 76%
c [  0.44  6 14 17 32 4672 118754 5440   1 464 44% 9 48 76%
c B  0.44  6 14 17 32 4672 118754 5440   1 464 44% 9 48 76%
c -  0.46  6 14 17 33 4674 124334 5179   1 464 45% 9 48 76%
c -  0.49  5 14 17 34 4678 130079 4418   1 464 45% 9 48 76%
c u  0.50  5 14 17 34 4678 130965 5147   1 464 45% 9 48 76%
c v  0.50  5 14 17 34 4678 130965 5120  28 464 45% 9 48 76%
c t  0.51  5 14 17 34 4678 130965 5120   1 464 45% 9 48 76%
c ]  0.51  5 14 18 34 4678 132194 6104   1 464 45% 9 48 76%
c {  0.51  5 15 18 34 4678 132194 6104   1 464 50% 9 48 76%
c -  0.53  5 15 18 35 4798 135911 4829   1 464 49% 9 48 76%
c -  0.55  5 15 18 36 4830 141829 5440   1 464 49% 9 48 76%
c -  0.57  5 14 18 37 4839 147830 6690   1 464 49% 9 48 76%
c u  0.59  6 14 18 37 4995 149421 8085   1 464 49% 9 48 76%
c v  0.59  6 14 18 37 4995 149421 8046  40 464 49% 9 48 76%
c t  0.60  6 14 18 37 4995 149421 8046   1 464 49% 9 48 76%
c -  0.62  6 14 18 38 5014 153913 7317   1 464 49% 9 48 76%
c }  0.62  6 14 19 38 5014 154540 7936   1 464 49% 9 48 76%
c
c  seconds   switched    conflicts     irredundant variables
c         MB   reductions      redundant      trail  remaining
c          level    restarts         binary      glue
c
c [  0.62  6 14 19 38 5014 154540 7936   1 464 45% 9 48 76%
c W  0.62  6 14 19 38 5014 154540 7936   1 464 45% 9 48 76%
c -  0.65  6 13 19 39 5017 160078 6576   1 464 45% 9 48 76%
c -  0.69  6 13 19 40 5020 166322 5950   1 464 45% 9 48 76%
c u  0.70  6 13 19 40 5021 169116 7862   1 464 45% 9 48 76%
c v  0.70  6 13 19 40 5021 169116 7557 306 464 45% 9 48 76%
c t  0.71  6 13 19 40 5021 169116 7557   1 464 45% 9 48 76%
c ]  0.72  6 13 20 40 5022 170714 9031   1 464 45% 9 48 76%
c {  0.72  6 14 20 40 5022 170714 9031   1 464 49% 9 48 76%
c -  0.73  6 14 20 41 5230 172646 5860   1 464 49% 9 48 76%
c -  0.77  5 13 20 42 5278 179050 7600   2 464 48% 8 48 76%
c i  0.80  6 13 20 42 5675 184876 12819  16 464 48% 8 47 75%
c -  0.80  6 13 20 43 5739 185530 5218   2 464 48% 8 47 75%
c u  0.83  6 13 20 43 5794 190066 9470  86 444 48% 8 47 75%
c v  0.84  5 13 20 43 5794 190066 7768 1788 444 48% 8 47 75%
c t  0.84  5 13 20 43 5794 190066 7768 821 444 48% 8 47 75%
c -  0.85  5 13 20 44 5876 192088 4665 821 444 48% 8 47 75%
c }  0.88  5 13 21 44 6397 197456 9407 821 444 48% 8 47 75%
c [  0.88  5 13 21 44 6397 197456 9407 821 444 45% 9 47 75%
c O  0.88  5 13 21 44 6397 197456 9407 821 444 45% 9 47 75%
c
c  seconds   switched    conflicts     irredundant variables
c         MB   reductions      redundant      trail  remaining
c          level    restarts         binary      glue
c
c -  0.89  6 13 21 45 6398 198722 6118 821 444 45% 9 47 75%
c -  0.92  5 12 21 46 6402 205431 7781 823 444 45% 9 47 75%
c i  0.94  5 12 21 46 6403 208223 10401 832 444 45% 9 46 73%
c i  0.95  6 12 21 46 6403 209037 11124 839 444 45% 9 45 71%
c i  0.95  6 12 21 46 6403 209371 11439 846 444 45% 9 44 70%
c i  0.95  6 12 21 46 6403 209899 11928 850 444 45% 9 42 67%
c i  0.95  6 12 21 46 6403 210064 12068 857 444 45% 9 41 65%
c i  0.95  6 12 21 46 6403 210151 12126 862 444 45% 9 37 59%
c i  0.95  6 12 21 46 6403 210164 12128 866 444 45% 9 36 57%
c i  0.95  6 12 21 46 6403 210169 12127 868 444 45% 9 28 44%
c ]  0.95  6 12 21 46 6403 210171 12127 868 444 45% 9 25 40%
c 0  0.95  6 13 21 46 6403 210171 12127 868 444 48% 8 25 40%
c
c ---- [ result ] ------------------------------------------------------------
c
s UNSATISFIABLE
c
c ---- [ profiling ] ---------------------------------------------------------
c
c           0.79   82.61 %  search
c           0.45   47.29 %  focused
c           0.34   35.31 %  stable
c           0.16   17.32 %  simplify
c           0.16   16.67 %  probe
c           0.11   11.86 %  vivify
c           0.04    3.75 %  sweep
c           0.02    2.24 %  reduce
c           0.01    0.84 %  substitute
c           0.00    0.36 %  eliminate
c           0.00    0.29 %  walking
c           0.00    0.21 %  transitive
c           0.00    0.06 %  parse
c           0.00    0.04 %  subsume
c           0.00    0.01 %  backbone
c           0.00    0.00 %  warmup
c =============================================
c           0.95  100.00 %  total
c
c ---- [ statistics ] --------------------------------------------------------
c
c conflicts:                           210171           220782.00 per second
c decisions:                           327278                1.56 per conflict
c eliminated:                              14               22 %  variables
c jumped_reasons:                          12                0 %  propagations
c propagations:                       1004772          1055500    per second
c queue_decisions:                     216275               66 %  decision
c random_decisions:                      7246                2 %  decision
c random_sequences:                        59             3562    interval
c reductions:                              46             4569    interval
c rephased:                                12            17514    interval
c restarts:                              6403               32.82 interval
c score_decisions:                     103757               32 %  decision
c strengthened:                            16                0 %  checks
c subsumed:                                 8                0 %  checks
c switched:                                21            10008    interval
c vivified:                              5952               13 %  checks
c vivify_checks:                        44411             2115    per vivify
c vivify_units:                             0                0 %  variables
c walk_improved:                            4              100 %  walks
c walks:                                    4            52543    interval
c
c ---- [ resources ] ---------------------------------------------------------
c
c maximum-resident-set-size:          6225920 bytes          6 MB
c process-time:                             1s               0.95 seconds
c
c ---- [ shutting down ] -----------------------------------------------------
c
c exit 20
